      95
 i =      100, E =      -938.6857042858
  O         3.1570107345       11.9816684754        9.1274020147
  O         4.5729812910        7.4369659642        6.7777621109
  O         2.0955357737       11.9846836769        6.8709846363
  O         1.5340301456        9.1282636037        6.8643257562
  O         0.5837656003        7.3527826696        9.1210443248
  O         1.0428913336       10.1959490917        9.1236698479
  O         2.6735855054        7.2767646927       10.8324952371
  O         0.0937591049        8.6838839613        4.3482895587
  O         2.2890430973       10.4691533733        4.5149956874
  O         2.6032541805        7.5347550552        4.7030615852
  O         2.4720789288       10.6412804754       11.5615812204
  O         0.2928856578        8.8047847351       11.4709250708
  O         5.0676719505       11.7908398572       11.1989050237
 Si         3.3760352716       12.0280973770       10.8624923498
 Si         4.2883643713        7.3383119343        4.9883457563
 Si         1.8172293587       12.0516906023        5.1485044661
 Si         1.6533082323        9.0028507379        5.1211619701
 Si         0.9142737791        7.2462505739       10.9778617762
 Si         0.8898976732       10.3594741974       10.8802221930
  H         4.5612793304       10.9667968389        6.2853161787
  H         3.2343720034        8.4246921405        9.7149638287
  O         4.2020737951       10.2863404369        6.9640813120
  O         3.5445151448        9.0451971107        8.9393692919
 Al         2.6196492671       10.5023198636        8.0084343775
 Al        -0.0117119079        9.0088632316        7.9981793087
  O         3.1632370100       21.2946862458        9.1326469297
  O         3.6298599220       14.8914648860        9.1133922484
  O         4.6822682549       16.6732122803        6.8747300301
  O         4.1892491130       13.8264655814        6.8841082161
  O         2.1069212145       21.3001106470        6.8737950576
  O         1.6230750380       18.4539769190        6.8785336122
  O         0.6596349177       16.6669210312        9.1186976436
  O         1.0602279147       19.5103248689        9.1210318289
  O         5.0738547989       15.2670394015       11.4786186452
  O         2.8705984610       13.5585235336       11.4711724429
  O         2.4999561872       16.4835165485       11.2800231881
  O         2.7503745575       13.3638456903        4.4293337216
  O         4.8779338269       15.1616152636        4.5136022383
  O         0.0990268106       12.1594197866        4.8831923398
  O         0.1906511937       18.0065994108        4.4252907167
  O         2.3797918536       19.8022578473        4.5133599684
  O         2.6929475012       16.8468831182        4.8821257832
  O         2.4795921531       19.9603810028       11.5599193410
  O         0.2883159217       18.1937441886       11.4729503944
  O         5.0670716839       21.1100975808       11.1988057069
 Si         3.3820626098       21.3707713264       10.8758924113
 Si         3.4720504708       15.0819694359       10.8525784923
 Si         4.3978641209       16.7299552552        5.1544205017
 Si         4.3203717705       13.6855691735        5.1532913297
 Si         1.8539698588       21.3838687009        5.1437898757
 Si         1.7490951752       18.3477921562        5.1474386049
 Si         0.8217600143       16.6859926437       10.8561346182
 Si         0.9035958696       19.7241202300       10.8585195615
  H         0.6870832854       13.1876499505        9.7310740065
  H         2.0105388656       15.5947739729        6.2951526515
  H         4.6254788369       20.2733130608        6.3120779407
  H         3.2854742169       17.8441674427        9.7522675483
  O         1.0263480258       13.7474113726        8.9531544001
  O         1.6344179592       14.9062067399        6.9553335628
  O         4.2589991951       19.5847793808        6.9800531710
  O         3.6160409008       18.3690920981        8.9486513093
 Al         2.6199975500       13.6084949425        7.9809362898
 Al         0.0720998992       15.1794782687        8.0013244829
 Al         2.6605081451       19.8032464083        7.9999106789
 Al         0.0605797859       18.2645346441        7.9830523636
  O         3.7196465776       24.2090097050        9.1168901428
  O         4.2406343105       23.0944811340        6.9054523361
  O         4.9757624931       24.4946888066       11.7513084461
  O         2.8665232404       22.8882791272       11.4642902565
  O         2.7864222198       22.7055513613        4.4293609738
  O         5.0515851073       24.5618539874        4.6074561770
  O         0.1251310094       21.4697656879        4.8820452443
 Si         3.4919233504       24.4579629196       10.8660185751
 Si         4.3808456214       23.0454563432        5.1453289618
  H         0.7185360521       22.5530071891        9.7638454242
  H         2.2309065581       24.9749784075        6.5018977591
  O         1.0520824880       23.0631441731        8.9488663984
  O         1.7199826506       24.2247842118        6.9662879338
 Al         2.6732644641       22.8781317023        8.0039068960
 Al         0.1019248556       24.4515883069        7.9867974839
  O         4.7745021636        5.6744906075        4.7765954681
  O        -0.4766580097        5.9374858636       11.4858633534
  O         2.1905939907       25.6357462432       11.0181169411
  O        -0.5713258688       25.8131334976        6.6825191454
  O         0.7662786438       25.9883236047        9.0385760435
  H        -0.3374451492       25.3324848148        5.5321386720
  H         0.0498079608       26.6799618351        9.2945865958
  H        -0.1476408151       26.7442210843        6.7787365912
  H         1.5874173897       25.8663785963       10.0035115370
  H         4.8353564914        5.2597090445        3.8371611782
  H        -0.3253287933        5.5769280747       12.4528026939
  H         0.7414008792       25.0125195636       11.5496638231
  H         4.3037836127        6.5932588686        7.2990768602
  H         1.2635673185        6.7698135388        8.6103504361
  H         3.4676604868        6.5871365022       11.2392677033
