      92
 i =      127, E =      -902.8240892273
  O         3.1522230810       15.5111111869        9.1167835009
  O         3.6332641045        9.0449670193        9.1087624096
  O         4.5899459357       10.8961679136        6.8765646088
  O         4.1871314134        7.9852231321        6.8756521654
  O         2.0099773026       15.4434642282        6.8671373148
  O         1.6138489334       12.6047107536        6.8824329876
  O         0.5654122723       10.8937037305        9.1062540949
  O         1.0488160051       13.7412135552        9.1118872251
  O         5.0485336139        9.4868929313       11.4789879670
  O         2.6805269531        7.7925945765       11.5472429944
  O         2.5042842997       10.7134345017       11.1106330816
  O         2.9561237603        7.6144484669        4.1628108484
  O         4.9758423503        9.2998412570        4.6044656465
  O         0.4895929010        6.4814113997        4.9853479809
  O         0.1839728328       12.1536846422        4.4302348966
  O         2.3781135237       13.9305090830        4.5193736688
  O         2.6984291415       10.9918783795        4.7985752169
  O         2.4763651807       14.1186625722       11.5582271250
  O         0.2863787894       12.4049405362       11.4753098758
  O         5.0729457049       15.3356594059       11.1937230072
 Si         3.3781036737       15.4845848186       10.8486624338
 Si         3.4393397559        9.2077372092       10.8472784278
 Si         4.3966152239       10.8207169829        5.1305412301
 Si         4.4007152351        7.7245821437        5.1020039771
 Si         1.7860721878       15.4598108365        5.1303316814
 Si         1.7457679590       12.4395278028        5.1390400167
 Si         0.7943252712       10.8752153737       10.8347174420
 Si         0.8906973899       13.8968566599       10.8460519872
  H         0.9188234292        7.6788948575        9.9103627438
  H         1.8989820381        9.7197112987        6.1044567967
  H         4.5252072640       14.3213217010        6.1783220180
  H         3.2468432779       12.0293098135        9.7322585087
  O         1.0462986697        7.9806546674        8.9461334878
  O         1.6274202366        9.2199525768        6.9562943167
  O         4.2072924917       13.7516665585        6.9619390891
  O         3.6198688671       12.6710377125        9.0310395738
 Al         2.6039777975        7.9200004017        7.8922187556
 Al         0.0308707629        9.3705984883        7.9688087592
 Al         2.6260349086       13.9562215997        7.9932837407
 Al         0.0151616161       12.4288687279        7.9735107853
  O         3.1607967476       24.7501127954        9.1156531557
  O         3.6337127769       18.2863512555        9.1010876465
  O         4.5863565257       20.0571551748        6.8672188533
  O         4.1908487232       17.2080439071        6.8704595468
  O         2.0064552599       24.5737801714        6.6877321908
  O         1.5351331257       21.8237441412        6.8643244642
  O         0.5637031914       20.1256151349        9.1067900766
  O         1.0367939025       22.9825112321        9.0547612540
  O         5.0629324099       18.8025561379       11.5622796894
  O         2.8691021640       17.0286573157       11.4752564663
  O         2.5532822207       19.9610768558       11.1053427964
  O         2.6870995990       16.8448527846        4.5093965433
  O         4.8731155251       18.5625824480        4.5105637120
  O         0.0987626941       15.6146318058        4.7134285936
  O         0.0924542028       21.4608425867        4.4305977294
  O         2.2936500407       23.3202722974        4.5314229380
  O         2.6102846970       20.2318065940        4.8755489314
  O         2.5649849419       23.4226799093       11.4713344325
  O         0.3853781438       21.6596116348       11.4716064041
  O         5.1607259373       24.5722196691       11.2027151729
 Si         3.4984226785       24.8031072306       10.8755830615
 Si         3.5082470491       18.4950803672       10.8252382911
 Si         4.3380992841       20.1048125404        5.1228074663
 Si         4.2990785343       17.0672069475        5.1285317028
 Si         1.6971658621       21.7961073885        5.0889306186
 Si         0.8456550013       20.1068162761       10.8250064719
 Si         0.9684371041       23.1344193241       10.7854114984
  H         0.5877964728       16.5471980245        9.6218786009
  H         1.9732534239       19.0074078490        6.2384126394
  H         4.3411956933       23.3167123464        5.9877483415
  H         3.1890369492       21.2536738953        9.6543568728
  O         0.9734566412       17.2053005121        8.9490238047
  O         1.6290846593       18.3647379910        6.9608763223
  O         4.1958723408       22.9917910949        6.9433503195
  O         3.5490342622       21.8977857459        8.9487852701
 Al         2.5804387911       17.0134898283        7.9609784614
 Al         0.0338115087       18.5497593604        7.9605085464
 Al         2.5587600501       23.1638467201        7.8787231617
 Al        -0.0233420441       21.6110081376        7.9417879665
  O         3.0596505586        6.0331881838        9.3040021794
  O         2.0155037507        6.1993594858        7.0438744590
  O         3.0528842175       26.4461739621       11.2186159278
  H         2.9845633102       26.7755443158       12.1896004791
  H         2.8144572775        6.9368792118       10.9522533961
  H         2.0547055042        7.0854882888        4.3557432173
  H         1.0113046258        6.3190159729        5.9505118589
  H         3.1727533483       25.6260873548        8.5763613719
  H         2.1758200315       24.0607686718        5.4201900150
  H         3.9854903547        5.5750849094        9.2264324662
  H         2.7628333363        5.7504850319        6.4857634478
  H         1.0756168955       24.9878324648        6.7981517725
  H         2.4447813083        5.7024338493        8.4498699398
