      40
 i =       35, E =      -426.4219875786
  O         3.2439640350        8.4972189501        5.0482636462
  O         3.6279764050        2.3379112959        5.0466669694
  O         4.5875097457        4.0163899034        2.9038265750
  O         4.1987881290        1.2083042395        2.9059197297
  O         2.0067553574        8.4989544172        2.9030219345
  O         1.6209748985        5.6915356924        2.9087026095
  O         0.6640625842        4.0141570072        5.0489670943
  O         1.0482039875        6.8209507858        5.0472266726
  O         5.0608001969        2.6303627711        7.3814495826
  O         2.7770107771        1.0175580166        7.2923840022
  O         2.4989612990        3.9110018754        7.1842000387
  O         2.7155830756        0.8703819967        0.5644463816
  O         4.9686055721        2.5195485366        0.6522171383
  O         0.1029513787       -0.3726232845        0.7622437697
  O         0.1775272823        5.3253207538        0.5611364985
  O         2.3888775686        7.0072009014        0.6527286379
  O         2.6981240387        4.1097880342        0.7685418923
  O         2.4817924031        7.1132140164        7.3815272168
  O         0.1960617865        5.5012144606        7.2920428452
  O         5.0789539410        8.3923705596        7.1843484682
 Si         3.4061060634        8.4715243632        6.7630141706
 Si         3.4542893256        2.4867948498        6.7589262341
 Si         4.3707143909        4.0260348197        1.1982446622
 Si         4.3104596554        1.0502250255        1.1907379091
 Si         1.7750600222        8.5109366905        1.1988101479
 Si         1.7523130926        5.5315168000        1.1978219767
 Si         0.8253329935        3.9888657524        6.7642692680
 Si         0.8756636980        6.9688224503        6.7599392162
  H         0.7050878041        0.6697715655        5.8155884486
  H         1.9399268218        2.8734770862        2.1790988175
  H         4.5236416262        7.3654869292        2.1859801238
  H         3.2917509379        5.1640573702        5.8282057678
  O         1.0411411576        1.2197696113        5.0285476586
  O         1.6304754766        2.3353793956        2.9838643848
  O         4.2113672396        6.8187518278        2.9839067173
  O         3.6216645840        5.7018425963        5.0313044563
 Al         2.6044311803        1.0336869516        3.9860693552
 Al         0.0578129437        2.5051814971        3.9870797718
 Al         2.6379915353        6.9870531082        3.9886467690
 Al         0.0248287253        5.5154254418        3.9870674052
