      92
 i =      185, E =      -902.7740757659
  O         3.2438112780       15.4369067008        9.1176440312
  O         3.6513578954        8.9640971282        9.1258443564
  O         4.6814534116       10.7118538179        6.8857945259
  O         4.1932262655        7.7211479179        6.9488206790
  O         2.1047531576       15.4328074437        6.8731377513
  O         1.5800692461       12.5559769521        6.9090215975
  O         0.5738603261       10.8139747301        9.1323900337
  O         1.0489145314       13.6599916344        9.1214001116
  O         5.1496140027        9.4064112872       11.5599352202
  O         2.7710002728        7.6992204565       11.3967597690
  O         2.5795259012       10.7239266749       11.1175858113
  O         2.7780555030        7.1846518949        4.3401052448
  O         4.8742179117        9.0599150867        4.5269079386
  O         0.1885508486        6.1345338439        5.0688739861
  O         0.1935318961       11.9724485718        4.4251018422
  O         2.2925053965       13.8514888855        4.5164180259
  O         2.6808455779       10.8214321882        4.9682488069
  O         2.5643433324       14.1015453735       11.4779191019
  O         0.2934728859       12.4103951078       11.4763919918
  O         5.1505347952       15.3395393619       11.2842723498
 Si         3.4632926573       15.5314950979       10.8443761951
 Si         3.5357238084        9.2645882363       10.8392266087
 Si         4.4163178783       10.6811134040        5.1618282329
 Si         4.2631878810        7.5706939063        5.2022858860
 Si         1.8285627588       15.4683338516        5.1461579702
 Si         1.7371593043       12.3818891223        5.1848798375
 Si         0.8409471002       10.9003109881       10.8576652203
 Si         0.9515373600       13.9332920614       10.8528705562
  H         0.9089028887        7.7074016581       10.0458739625
  H         2.0752479005        9.7342021605        6.3789214973
  H         4.5841250728       14.3504832011        6.2880031711
  H         3.2596229347       12.0247049910        9.7898860430
  O         1.0408490572        7.8885058971        9.0520466513
  O         1.7080258702        9.0368910722        7.0436342780
  O         4.2077533363       13.6651156746        6.9547435245
  O         3.5482304487       12.5086536662        8.9420672641
 Al         2.6356284721        7.6932203731        8.0396653453
 Al         0.1003080266        9.2836847528        8.0364404239
 Al         2.6371434938       13.9561954664        8.0024453672
 Al         0.0089822503       12.3920348151        7.9966557604
  O         3.2543719212       24.7489009450        9.0527414850
  O         3.7141660609       18.2816337917        9.1240350807
  O         4.7738856854       20.1332504854        6.8801773558
  O         4.2105343107       17.2887638625        6.8686500620
  O         1.9159100050       24.5773870694        6.6876745891
  O         1.6982960770       21.9091396837        6.9387281705
  O         0.6701302565       20.1293493190        9.1320853949
  O         1.0761485042       22.9903767279        9.1312225737
  O         5.1593326541       18.7293678139       11.4782609239
  O         2.8784208971       17.0304525497       11.4682554108
  O         2.5761637827       19.9536071745       11.2819160422
  O         2.7752920519       16.7613857112        4.4256267634
  O         4.9655116332       18.6070884240        4.5123628079
  O         0.1138590214       15.6051320524        4.8837890754
  O         0.2960658747       21.4688360016        4.4273887962
  O         2.4740323574       23.3919139162        4.6053933312
  O         2.7640256832       20.2457187261        4.9667131190
  O         2.5734750944       23.5099081197       11.5559586102
  O         0.3840272411       21.7204595100       11.4761714886
  O         5.1531156472       24.6601740308       11.2872618844
 Si         3.5032567423       24.8939504323       10.7178235931
 Si         3.5466179200       18.5550250501       10.8493196334
 Si         4.4951676167       20.2001527336        5.1569332815
 Si         4.3430501104       17.1465901787        5.1395974516
 Si         1.8666596520       21.8681147955        5.1796847277
 Si         0.8879388364       20.1957134727       10.8620039677
 Si         0.9904246608       23.2733826238       10.8656228421
  H         0.8201648938       16.8477765733        9.8712116677
  H         2.0882553735       19.0594506394        6.2911077772
  H         4.8588460919       23.8543556974        6.6250094710
  H         3.3587341621       21.3842611272        9.8207560743
  O         1.0567416547       17.2033239495        8.9486360895
  O         1.7138215051       18.3673832967        6.9592237396
  O         4.3016901043       23.0650631589        6.9651495228
  O         3.6307395072       21.8260774029        8.9461260389
 Al         2.6671595018       17.0695998100        7.9757591810
 Al         0.1309756591       18.6391451355        7.9864856302
 Al         2.6744866968       23.2992053891        8.0061444781
 Al         0.0972078557       21.7151295337        7.9985019945
  O         3.3360321973        6.2923803356        9.3939358156
  O         1.6274759191        6.1221539483        7.2072205055
  O         3.0618857951       26.5170633314       11.2962034622
  H         3.1097725743        6.6638013419       10.4039628596
  H         1.1728084814        6.0698227470        6.1989412816
  H         2.1265330714       25.5612330016        6.8912973761
  H         3.1510966612        5.2859902649        9.2739439563
  H         0.8072558051        6.0361919969        7.8335411194
  H         2.2331615274       24.1678492430        5.5667267415
  H         3.3581654127       26.6860977537       12.2701183053
  H         2.5041480244        7.5921831596       12.3872876502
  H         2.2029926095        8.0177207364        4.1141426938
  H         0.5320237777        5.8162670257        4.1488351773
