40
bulk C2000
O 3.170000 8.470000 5.060000
O 3.610000 2.250000 5.070000
O 4.630000 4.000000 2.940000
O 4.190000 1.250000 2.940000
O 2.020000 8.480000 2.940000
O 1.640000 5.740000 2.940000
O 0.620000 3.990000 5.060000
O 1.060000 6.730000 5.070000
O 4.850000 2.930000 7.300000
O 3.160000 0.914000 7.290000
O 2.290000 3.420000 7.060000
O 2.950000 0.570000 0.700000
O 4.640000 2.590000 0.710000
O 0.350000 0.080000 0.950000
O 0.400000 5.050000 0.700000
O 2.090000 7.070000 0.710000
O 2.960000 4.570000 0.950000
O 2.290000 7.420000 7.300000
O 0.610000 5.390000 7.290000
O 4.900000 7.900000 7.060000
Si 3.360000 8.400000 6.680000
Si 3.460000 2.380000 6.690000
Si 4.440000 4.070000 1.320000
Si 4.340000 1.120000 1.310000
Si 1.830000 8.560000 1.320000
Si 1.790000 5.610000 1.310000
Si 0.810000 3.910000 6.680000
Si 0.910000 6.860000 6.690000
H 0.840000 1.200000 5.950000
H 1.810000 2.300000 2.050000
H 4.410000 6.790000 2.050000
H 3.440000 5.680000 5.950000
O 1.010000 1.220000 4.990000
O 1.630000 2.280000 3.010000
O 4.240000 6.770000 3.010000
O 3.620000 5.700000 4.990000
Al 2.600000 1.010000 4.000000
Al 0.040000 2.490000 4.000000
Al 2.650000 6.980000 4.000000
Al 0.050000 5.490000 4.000000
