92
rib_y_o00_al {"nSi": 15, "nAl": 8, "nO": 51, "nH": 18, "edge_O": 9, "extra_H": 10, "variant": "al"}
O 3.170000 15.470000 9.060000
O 3.610000 9.250000 9.070000
O 4.630000 11.000000 6.940000
O 4.190000 8.250000 6.940000
O 2.020000 15.480000 6.940000
O 1.640000 12.740000 6.940000
O 0.620000 10.990000 9.060000
O 1.060000 13.730000 9.070000
O 4.850000 9.930000 11.300000
O 3.160000 7.914000 11.290000
O 2.290000 10.420000 11.060000
O 2.950000 7.570000 4.700000
O 4.640000 9.590000 4.710000
O 0.350000 7.080000 4.950000
O 0.400000 12.050000 4.700000
O 2.090000 14.070000 4.710000
O 2.960000 11.570000 4.950000
O 2.290000 14.420000 11.300000
O 0.610000 12.390000 11.290000
O 4.900000 14.900000 11.060000
Si 3.360000 15.400000 10.680000
Si 3.460000 9.380000 10.690000
Si 4.440000 11.070000 5.320000
Si 4.340000 8.120000 5.310000
Si 1.830000 15.560000 5.320000
Si 1.790000 12.610000 5.310000
Si 0.810000 10.910000 10.680000
Si 0.910000 13.860000 10.690000
H 0.840000 8.200000 9.950000
H 1.810000 9.300000 6.050000
H 4.410000 13.790000 6.050000
H 3.440000 12.680000 9.950000
O 1.010000 8.220000 8.990000
O 1.630000 9.280000 7.010000
O 4.240000 13.770000 7.010000
O 3.620000 12.700000 8.990000
Al 2.600000 8.010000 8.000000
Al 0.040000 9.490000 8.000000
Al 2.650000 13.980000 8.000000
Al 0.050000 12.490000 8.000000
O 3.170000 24.436000 9.060000
O 3.610000 18.216000 9.070000
O 4.630000 19.966000 6.940000
O 4.190000 17.216000 6.940000
O 2.020000 24.446000 6.940000
O 1.640000 21.706000 6.940000
O 0.620000 19.956000 9.060000
O 1.060000 22.696000 9.070000
O 4.850000 18.896000 11.300000
O 3.160000 16.880000 11.290000
O 2.290000 19.386000 11.060000
O 2.950000 16.536000 4.700000
O 4.640000 18.556000 4.710000
O 0.350000 16.046000 4.950000
O 0.400000 21.016000 4.700000
O 2.090000 23.036000 4.710000
O 2.960000 20.536000 4.950000
O 2.290000 23.386000 11.300000
O 0.610000 21.356000 11.290000
O 4.900000 23.866000 11.060000
Si 3.360000 24.366000 10.680000
Si 3.460000 18.346000 10.690000
Si 4.440000 20.036000 5.320000
Si 4.340000 17.086000 5.310000
Si 1.790000 21.576000 5.310000
Si 0.810000 19.876000 10.680000
Si 0.910000 22.826000 10.690000
H 0.840000 17.166000 9.950000
H 1.810000 18.266000 6.050000
H 4.410000 22.756000 6.050000
H 3.440000 21.646000 9.950000
O 1.010000 17.186000 8.990000
O 1.630000 18.246000 7.010000
O 4.240000 22.736000 7.010000
O 3.620000 21.666000 8.990000
Al 2.600000 16.976000 8.000000
Al 0.040000 18.456000 8.000000
Al 2.650000 22.946000 8.000000
Al 0.050000 21.456000 8.000000
O 3.170000 6.504000 9.060000
O 2.020000 6.514000 6.940000
O 3.160000 25.846000 11.290000
H 3.456799 5.746247 9.593345
H 1.727440 5.759396 6.405321
H 2.208131 25.285734 6.492391
H 2.219488 6.368460 8.921960
H 1.222130 7.047997 7.078385
H 2.885592 24.023828 7.055850
H 3.039744 26.735894 11.656780
H 3.280256 7.024106 10.923220
H 2.275123 6.981893 5.073593
H 1.246638 6.785563 5.174159
