95
rib_y_o37_al {"nSi": 16, "nAl": 8, "nO": 53, "nH": 18, "edge_O": 10, "extra_H": 10, "variant": "al"}
O 3.170000 12.152580 9.060000
O 4.630000 7.682580 6.940000
O 2.020000 12.162580 6.940000
O 1.640000 9.422580 6.940000
O 0.620000 7.672580 9.060000
O 1.060000 10.412580 9.070000
O 2.290000 7.102580 11.060000
O 0.400000 8.732580 4.700000
O 2.090000 10.752580 4.710000
O 2.960000 8.252580 4.950000
O 2.290000 11.102580 11.300000
O 0.610000 9.072580 11.290000
O 4.900000 11.582580 11.060000
Si 3.360000 12.082580 10.680000
Si 4.440000 7.752580 5.320000
Si 1.830000 12.242580 5.320000
Si 1.790000 9.292580 5.310000
Si 0.810000 7.592580 10.680000
Si 0.910000 10.542580 10.690000
H 4.410000 10.472580 6.050000
H 3.440000 9.362580 9.950000
O 4.240000 10.452580 7.010000
O 3.620000 9.382580 8.990000
Al 2.650000 10.662580 8.000000
Al 0.050000 9.172580 8.000000
O 3.170000 21.118580 9.060000
O 3.610000 14.898580 9.070000
O 4.630000 16.648580 6.940000
O 4.190000 13.898580 6.940000
O 2.020000 21.128580 6.940000
O 1.640000 18.388580 6.940000
O 0.620000 16.638580 9.060000
O 1.060000 19.378580 9.070000
O 4.850000 15.578580 11.300000
O 3.160000 13.562580 11.290000
O 2.290000 16.068580 11.060000
O 2.950000 13.218580 4.700000
O 4.640000 15.238580 4.710000
O 0.350000 12.728580 4.950000
O 0.400000 17.698580 4.700000
O 2.090000 19.718580 4.710000
O 2.960000 17.218580 4.950000
O 2.290000 20.068580 11.300000
O 0.610000 18.038580 11.290000
O 4.900000 20.548580 11.060000
Si 3.360000 21.048580 10.680000
Si 3.460000 15.028580 10.690000
Si 4.440000 16.718580 5.320000
Si 4.340000 13.768580 5.310000
Si 1.830000 21.208580 5.320000
Si 1.790000 18.258580 5.310000
Si 0.810000 16.558580 10.680000
Si 0.910000 19.508580 10.690000
H 0.840000 13.848580 9.950000
H 1.810000 14.948580 6.050000
H 4.410000 19.438580 6.050000
H 3.440000 18.328580 9.950000
O 1.010000 13.868580 8.990000
O 1.630000 14.928580 7.010000
O 4.240000 19.418580 7.010000
O 3.620000 18.348580 8.990000
Al 2.600000 13.658580 8.000000
Al 0.040000 15.138580 8.000000
Al 2.650000 19.628580 8.000000
Al 0.050000 18.138580 8.000000
O 3.610000 23.864580 9.070000
O 4.190000 22.864580 6.940000
O 4.850000 24.544580 11.300000
O 3.160000 22.528580 11.290000
O 2.950000 22.184580 4.700000
O 4.640000 24.204580 4.710000
O 0.350000 21.694580 4.950000
Si 3.460000 23.994580 10.690000
Si 4.340000 22.734580 5.310000
H 0.840000 22.814580 9.950000
H 1.810000 23.914580 6.050000
O 1.010000 22.834580 8.990000
O 1.630000 23.894580 7.010000
Al 2.600000 22.624580 8.000000
Al 0.040000 24.104580 8.000000
O 4.640000 6.272580 4.710000
O -0.310000 6.612580 11.300000
O 2.290000 25.034580 11.060000
O -0.530000 25.614580 6.940000
O 0.620000 25.604580 9.060000
H -0.816335 26.373115 6.407518
H 0.912087 26.359978 9.593815
H 0.420683 25.749149 7.077816
H 1.418297 25.071163 8.921839
H 4.760256 5.382686 4.343220
H -0.983860 6.022952 11.673030
H 1.584453 25.661733 11.283122
H 4.916335 6.924045 7.472482
H 0.327913 6.917182 8.526185
H 2.995547 6.475427 10.836878
