      96
 i =      146, E =      -920.7703888890
  O         9.8957302834        8.5087965123        9.1420141543
  O        10.6423933459        2.2355695734        9.1313745860
  O        11.5925583647        4.0155215369        6.9334321126
  O        11.1003966280        1.2878486031        6.9404488845
  O         8.8331786316        8.5069402122        6.9528622332
  O         8.4540430782        5.6918240102        6.9647901650
  O         7.5031880449        4.0121909813        8.5013895163
  O         7.7849354065        6.9176504638        9.1086343158
  O        11.8896942885        2.8933175891       11.5619662576
  O         9.9687086111        0.9413609803       11.6492508243
  O         9.2004152231        3.7233707961       11.0094070944
  O         9.7910011975        0.5611366710        4.5245076906
  O        11.7704812284        2.5340396078        4.5190397243
  O         6.9290913121        0.1979764335        4.7904379562
  O         6.9264695235        4.7516342755        4.7864090000
  O         8.6427077832        7.0157729563        4.5214701112
  O         9.7036547439        4.3921546485        4.7132549333
  O         9.1278844311        7.1898196505       11.4780848369
  O         7.0286792339        5.1319559760       11.1030128841
  O        11.8882438863        8.1195252098       11.1093182827
 Si        10.2141807116        8.3868196682       10.8670504548
 Si        10.3738316639        2.4435997652       10.8682314183
 Si        11.3371304407        4.0685076947        5.1826735506
 Si        11.3019774526        1.0383794677        5.2115239513
 Si         8.5099407036        8.5850054737        5.2197569777
 Si         8.4450521243        5.4674800716        5.2384542333
 Si         7.5619102801        3.5175695230       10.2492060544
 Si         7.5674303664        6.7194810578       10.8957598825
  H         7.3931197390        1.0037158903        9.9753046124
  H         8.6563937451        2.6460519358        6.1314989369
  H        11.5368385197        7.4650246660        6.2921384173
  H        10.1770810679        5.1439840543        9.7601880981
  O         8.0681758412        1.6786854827        9.5788191456
  O         8.3629703100        2.2530135231        7.0327312244
  O        11.1179147819        6.8166676020        6.9587815604
  O        10.5361985493        5.7841103715        9.0407569478
 Al         9.4429407113        1.1018458207        8.0954252890
 Al         9.4827197496        7.0030562560        7.9747209244
  O        15.5812399122        8.4153945762        9.0282456306
  O        15.9712540426        2.3377706460        9.0087648961
  O        17.0026071406        4.0117600014        7.4926494371
  O        16.6338404175        1.1121729123        6.8743427306
  O        14.5176078705        8.4806184861        6.8351140076
  O        13.7697108192        5.7940522903        6.8694646604
  O        12.8149661214        4.0111963868        9.1101956574
  O        13.3114758667        6.7391639177        9.0518411215
  O        17.4720533532        3.2704315238       11.2802325548
  O        15.7728637323        0.9488022434       11.3887250529
  O        14.7167530165        3.6325540703       11.2043858177
  O        15.3769099412        0.7472711503        4.4323324625
  O        17.3844442506        2.9017970564        4.8880699011
  O        12.5426845890       -0.0912628314        4.8795799823
  O        12.4745530724        5.1525069388        4.5032641604
  O        14.4493854741        7.0511969585        4.3439148317
  O        15.2034637619        4.2981266668        5.0612403016
  O        14.6362268533        7.3877934543       11.4680053307
  O        12.6423089072        5.4854199511       11.4802222921
  O        17.4861519949        7.7428558640       11.2009095399
 Si        15.9131203109        8.3285385132       10.7566996668
 Si        15.9780275161        2.5285236202       10.7417635823
 Si        16.8662415878        4.5048280194        5.7499276796
 Si        16.8951096363        1.2965001788        5.0820457416
 Si        14.2244123337        8.5914670279        5.1024398841
 Si        14.0207988606        5.5706678012        5.1424738858
 Si        13.0550288061        3.9386329655       10.8473267534
 Si        13.1123556475        6.9691351749       10.7809564600
  H        12.8841645815        0.5501787197        9.6950640381
  H        14.2574365621        2.9115312598        6.2622324274
  H        17.0569359699        7.0152570021        6.0680233134
  H        15.6914529149        5.2503191350        9.8137449710
  O        13.2995293680        1.2096342835        9.0357404557
  O        13.8795347054        2.2472844584        6.9529447200
  O        16.3487951259        6.3512123336        6.4171994978
  O        16.0432515279        5.7001918311        8.9596178519
 Al        14.9354005939        1.0082698394        8.0120409190
 Al        12.2378971803        2.4835384662        8.0163748548
 Al        14.9808462999        6.9000455492        7.8925339909
 Al        12.1809573924        5.5483640281        7.9946598791
  O         6.1769003052        2.7064779750       11.0199375569
  O         6.4479068583        8.0361025638       11.1277748089
  O        18.2372540347        5.3289867637        4.9720081044
  O        18.1448962809        0.0928584426        4.8706219357
  H         5.6501166117        3.3735707235       11.6062147687
  H         6.0585833175        8.2673909158       12.0496513415
  H        18.7715379522        4.6699016627        4.3842846383
  H        18.4150992470       -0.2400736738        3.9368498850
  H         7.9065670973        4.8927126521        7.8276188999
  H         7.7957456902        3.1029576753        7.7588716506
  H         6.9290096043        6.8416868139        8.5494012515
  H         6.6113177987        1.0780448823        5.2226858569
  H         6.6834170042        4.7419147861        3.7881819337
  H        16.5554021393        3.1384292273        8.1472448853
  H        16.6631208003        4.9089285149        8.2454298714
  H        17.4818085639        1.2375310782        7.4387845807
  H        17.6130588866        3.3408619616       12.2969649548
  H        17.7812989774        6.8401052666       10.8000011386
