96
rib_x_o00_al {"nSi": 16, "nAl": 6, "nO": 52, "nH": 22, "edge_O": 18, "extra_H": 14, "variant": "al"}
O 10.170000 8.470000 9.060000
O 10.610000 2.250000 9.070000
O 11.630000 4.000000 6.940000
O 11.190000 1.250000 6.940000
O 9.020000 8.480000 6.940000
O 8.640000 5.740000 6.940000
O 7.620000 3.990000 9.060000
O 8.060000 6.730000 9.070000
O 11.850000 2.930000 11.300000
O 10.160000 0.914000 11.290000
O 9.290000 3.420000 11.060000
O 9.950000 0.570000 4.700000
O 11.640000 2.590000 4.710000
O 7.350000 0.080000 4.950000
O 7.400000 5.050000 4.700000
O 9.090000 7.070000 4.710000
O 9.960000 4.570000 4.950000
O 9.290000 7.420000 11.300000
O 7.610000 5.390000 11.290000
O 11.900000 7.900000 11.060000
Si 10.360000 8.400000 10.680000
Si 10.460000 2.380000 10.690000
Si 11.440000 4.070000 5.320000
Si 11.340000 1.120000 5.310000
Si 8.830000 8.560000 5.320000
Si 8.790000 5.610000 5.310000
Si 7.810000 3.910000 10.680000
Si 7.910000 6.860000 10.690000
H 7.840000 1.200000 9.950000
H 8.810000 2.300000 6.050000
H 11.410000 6.790000 6.050000
H 10.440000 5.680000 9.950000
O 8.010000 1.220000 8.990000
O 8.630000 2.280000 7.010000
O 11.240000 6.770000 7.010000
O 10.620000 5.700000 8.990000
Al 9.600000 1.010000 8.000000
Al 9.650000 6.980000 8.000000
O 15.330000 8.470000 9.060000
O 15.770000 2.250000 9.070000
O 16.790000 4.000000 6.940000
O 16.350000 1.250000 6.940000
O 14.180000 8.480000 6.940000
O 13.800000 5.740000 6.940000
O 12.780000 3.990000 9.060000
O 13.220000 6.730000 9.070000
O 17.010000 2.930000 11.300000
O 15.320000 0.914000 11.290000
O 14.450000 3.420000 11.060000
O 15.110000 0.570000 4.700000
O 16.800000 2.590000 4.710000
O 12.510000 0.080000 4.950000
O 12.560000 5.050000 4.700000
O 14.250000 7.070000 4.710000
O 15.120000 4.570000 4.950000
O 14.450000 7.420000 11.300000
O 12.770000 5.390000 11.290000
O 17.060000 7.900000 11.060000
Si 15.520000 8.400000 10.680000
Si 15.620000 2.380000 10.690000
Si 16.600000 4.070000 5.320000
Si 16.500000 1.120000 5.310000
Si 13.990000 8.560000 5.320000
Si 13.950000 5.610000 5.310000
Si 12.970000 3.910000 10.680000
Si 13.070000 6.860000 10.690000
H 13.000000 1.200000 9.950000
H 13.970000 2.300000 6.050000
H 16.570000 6.790000 6.050000
H 15.600000 5.680000 9.950000
O 13.170000 1.220000 8.990000
O 13.790000 2.280000 7.010000
O 16.400000 6.770000 7.010000
O 15.780000 5.700000 8.990000
Al 14.760000 1.010000 8.000000
Al 12.200000 2.490000 8.000000
Al 14.810000 6.980000 8.000000
Al 12.210000 5.490000 8.000000
O 6.690000 2.930000 11.300000
O 6.740000 7.900000 11.060000
O 17.720000 5.050000 4.700000
O 17.670000 0.080000 4.950000
H 8.884147 1.619107 9.122214
H 8.964475 3.180909 6.878129
H 15.524173 6.374434 6.878261
H 15.445525 4.799091 9.121871
H 6.016140 2.340372 11.673030
H 6.034453 8.527153 11.283122
H 18.393860 5.639628 4.326970
H 18.376544 -0.548039 4.732602
H 7.839731 5.614171 7.473513
H 7.157490 3.990936 8.207367
H 7.550857 6.104914 8.530611
H 6.643456 0.708039 5.167398
H 6.726140 4.460372 5.073030
H 16.568508 2.370530 8.532639
